single pot dist
cell
4.904 4.904 4.904 90.00 90.00 90.00
fractional
Ag c   0.2500 0.2500 0.2500
O  c   0.5000 0.0000 0.0000
space group
224
species
Ag    core   3.00
O     core  -2.00