single pot 
cell
4.7640 4.7640 13.0091 90.00 90.00 120.00
fractional
Al c   0.0000 0.0000 0.3521
O  c   0.3060 0.0000 0.2500   
space group
167
species
Al    core   3.00
O     core  -2.00