single pot dist
cell
5.582 5.582 5.582 90.00 90.00 90.00
fractional
Ba c   0.5000 0.5000 0.5000
O  c   0.0000 0.0000 0.0000
space group
225
species
Ba    core   2.00
O     core  -2.00