single pot 
cell
3.841 3.841 3.841 90.00 90.00 90.00
fractional
Be c   0.0000 0.0000 0.0000
O  c   0.2500 0.2500 0.2500   
space group
216
species
Be    core   2.00
O     core  -2.00