single pot dist
cell
5.8486 8.1661 7.5097 90.00 113.00 90.00
fractional
Bi  c   0.5240 0.1831 0.3613 
Bi  c   0.0409 0.0425 0.7762
O   c   0.7804 0.3003 0.7103
O   c   0.2425 0.0444 0.1344
O   c   0.2714 0.0243 0.5133
space group
14
species
Bi   core   3.00
O    core  -2.00