single pot 
cell
4.797 4.797 4.797 90.00 90.00 90.00
fractional
Ca c   0.0000 0.0000 0.0000
O c   0.5000 0.0000 0.0000   
space group
225
species
Ca    core   2.00
O    core  -2.00