single pot dist
cell
4.6948 4.6948 4.6948 90.00 90.00 90.00
fractional
Cd c   0.0000 0.0000 0.0000
O  c   0.5000 0.5000 0.5000
space group
225
species
Cd    core   2.00
O     core  -2.00