single pot 
cell
4.9607 4.9607 13.5990 90.00 90.00 120.00
fractional
Cr c   0.0000 0.0000 0.3475
O  c   0.3064 0.0000 0.2500   
space group
167
species
Cr    core   3.00
O     core  -2.00