single pot 
cell
4.4218 4.4218 2.9182 90.00 90.00 90.00
fractional
Cr c   0.0000 0.0000 0.0000
O  c   0.3014 0.3014 0.0000   
space group
136
species
Cr    core   4.00
O     core  -2.00