single pot dist
cell
4.2564 4.2564 18.9902 90.00 90.00 120.00
fractional
Cs c   0.0000 0.0000 0.2561
O  c   0.0000 0.0000 0.0000
space group
166
species
Cs    core   1.00
O     core  -2.00