single pot 
cell
4.250 4.250 4.250 90.00 90.00 90.00
fractional
Cu c   0.2500 0.2500 0.2500
O  c   0.0000 0.0000 0.0000   
space group
224
species
Cu    core   1.00
O     core  -2.00