single pot 
cell
4.6797 3.4314 5.1362 90.00 99.2625 90.00
fractional
Cu c   0.2500 0.2500 0.0000
O  c   0.0000 0.5822 0.2500   
space group
15
species
Cu    core   2.00
O     core  -2.00