single pot 
cell
5.038 5.038 13.772 90.00 90.00 120.00
fractional
Fe c   0.0000 0.0000 0.3553
O  c   0.3059 0.0000 0.2500   
space group
167
species
Fe    core   3.00
O     core  -2.00