single pot 
cell
4.3718 4.3718 4.3718 90.00 90.00 90.00
fractional
Fe c   0.0000 0.0000 0.0000
O  c   0.5000 0.5000 0.5000   
space group
225
species
Fe    core   2.00
O     core  -2.00