single pot dist
cell
12.232 3.041 5.801 90.00 103.70 90.00
fractional
Ga  c   0.0904 0.0000 0.2052
Ga  c   0.3414 0.0000 0.3143
O   c   0.1674 0.0000 0.1011
O   c   0.4957 0.0000 0.2553
O   c   0.8279 0.0000 0.4365   
space group
12
species
Ga    core   3.00
O     core  -2.00