single pot dist
cell
4.9963 4.9963 5.6542 90.00 90.00 120.00
fractional
Ge  c   0.4510 0.0000 1/3
O   c   0.3850 0.2960 0.0940  
space group
152
species
Ge    core   4.00
O     core  -2.00