single pot dist
cell
4.4983 4.4983 3.1547 90.00 90.00 90.00
fractional
Ir  c   0.0000 0.0000 0.0000
O   c   0.3082 0.3082 0.0000
space group
136
species
Ir   core   4.00
O    core  -2.00