single pot 
cell
6.091 6.091 6.091 90.00 90.00 90.00
fractional
K c   0.2500 0.2500 0.2500
O c   0.0000 0.0000 0.0000   
space group
225
species
K    core   1.00
O    core  -2.00