single pot 
cell
4.610 4.610 4.610 90.00 90.00 90.00
fractional
Li c   0.2500 0.2500 0.2500
O  c   0.0000 0.0000 0.0000   
space group
225
species
Li    core   1.00
O     core  -2.00