single pot 
cell
4.2109 4.2109 4.2109 90.00 90.00 120.00
fractional
Mg c   0.0000 0.0000 0.0000
O  c   0.5000 0.5000 0.5000   
space group
225
species
Mg    core   2.00
O     core  -2.00