single pot 
cell
4.444 4.444 4.444 90.00 90.00 90.00
fractional
Mn c   0.0000 0.0000 0.0000
O  c   0.5000 0.5000 0.5000   
space group
225
species
Mn    core   2.00
O     core  -2.00