single pot 
cell
4.3983 4.3983 2.8730 90.00 90.00 90.00
fractional
Mn c   0.0000 0.0000 0.0000
O  c   0.30515 0.30515 0.0000   
space group
136
species
Mn    core   4.00
O     core  -2.00