single pot dist
cell
13.8553 3.69646 3.96287 90.00 90.00 90.00
fractional
Mo c   0.10164 0.2500 0.08669
O  c   0.43513 0.2500 0.4994
O  c   0.08657 0.2500 0.5212
O  c   0.22140 0.2500 0.0373
space group
62
species
Mo    core   6.00
O     core  -2.00