single pot dist
cell
12.7402 4.8830 5.5609 90.00 105.02 90.00
fractional
Nb c   0.3598 0.2587 0.2512
O  c   0.5000 0.3965 0.2500
O  c   0.1088 0.4422 0.4709
O  c   0.2055 0.0723 0.1256
space group
15
species
Nb    core   5.00
O     core  -2.00