single pot dist
cell
4.21013 4.21013 4.21013 90.00 90.00 90.00
fractional
Nb c   0.0000 0.5000 0.5000
O  c   0.5000 0.0000 0.0000
space group
221
species
Nb    core   2.00
O     core  -2.00