single pot dist
cell
13.6961 13.6961 5.9811 90.00 90.00 90.00
fractional
Nb c   0.1161 0.1232 0.4883
Nb c   0.1331 0.1242 0.0312
O  c   0.9871 0.1332 -0.0053
O  c   0.9761 0.1262 0.4853
O  c   0.2741 0.1192 0.9873
O  c   0.2651 0.1262 0.5093
space group
88
species
Nb    core   4.00
O     core  -2.00