single pot 
cell
2.9520 2.9520 7.2179 90.00 90.00 120.00
fractional
Ni c   0.0000 0.0000 0.0000
O  c   0.0000 0.0000 0.5000   
space group
166
species
Ni    core   2.00
O     core  -2.00