single pot dist
cell
3.9723 3.9723 5.0233 90.00 90.00 90.00
fractional
Pb  c   0.0000 0.5000 0.2330
O   c   0.0000 0.0000 0.0000
space group
129
species
Pb   core   2.00
O    core  -2.00