single pot dist
cell
3.031 3.031 5.332 90.00 90.00 90.00
fractional
Pd c   0.5000 0.0000 0.0000
O  c   0.0000 0.0000 0.2500
space group
131
species
Pd    core   2.00
O     core  -2.00