single pot dist
cell
5.6375 5.6375 5.6375 90.00 90.00 90.00
fractional
Po  c   0.0000 0.0000 0.0000
O   c   0.2500 0.2500 0.2500
space group
225
species
Po   core   4.00
O    core  -2.00