single pot dist
cell
6.7555 6.7555 6.7555 90.00 90.00 90.00
fractional
Rb  c   0.2500 0.2500 0.2500
O   c   0.0000 0.0000 0.0000  
space group
225
species
Rb    core   1.00
O     core  -2.00