single pot dist
cell
12.5088 15.1961 5.4485 90.00 90.00 90.00
fractional
Re  c   0.4749 0.3697 0.5656
Re  c   0.2674 0.3637 0.0629
Re  c   0.5262 0.1427 0.3255
Re  c   0.2197 0.1365 0.8080
O   c   0.3753 0.3372 0.2555
O   c   0.5837 0.3687 0.2834
O   c   0.5006 0.2349 0.5134
O   c   0.5809 0.3822 0.7665
O   c   0.4482 0.4747 0.5195
O   c   0.4853 0.0496 0.4637	
O   c   0.4480 0.1579 0.0797	
O   c   0.3739 0.3375 0.7625	
O   c   0.6614 0.1378 0.2314	
O   c   0.2478 0.2275 0.0115	
O   c   0.1606 0.3641 0.2505	
O   c   0.2843 0.4727 0.0174	
O   c   0.2628 0.0437 0.9677	
O   c   0.2904 0.1500 0.5425	
space group
19
species
Re   core   7.00
O    core  -2.00