single pot dist
cell
5.1271 5.1271 13.8534 90.00 90.00 120.00
fractional
Rh c   0.00000 0.0000 0.3481
O  c   0.29510 0.0000 0.2500
space group
167
species
Rh    core   3.00
O     core  -2.00