single pot dist
cell
12.6454 4.7822 5.4242 90.00 103.929 90.00
fractional
Sb c   0.1378 0.2409 0.2798
O  c   0.2971 0.0799 0.3752
O  c   0.3971 0.4147 0.0510
O  c   0.0000 0.4194 0.2500
space group
15
species
Sb    core   5.00
O     core  -2.00