single pot dist
cell
3.7986 3.7986 4.8408 90.00 90.00 90.00
fractional
Sn c   0.5000 0.0000 0.2369
O  c   0.0000 0.0000 0.0000
space group
129
species
Sn    core   2.00
O     core  -2.00