single pot dist
cell
4.7380 4.7280 3.1865 90.00 90.00 90.00
fractional
Sn c   0.0000 0.0000 0.0000
O  c   0.3071 0.3071 0.0000
space group
136
species
Sn    core   4.00
O     core  -2.00