single pot 
cell
5.1602 5.1602 5.1602 90.00 90.00 90.00
fractional
Sr c   0.5000 0.5000 0.5000
O  c   0.0000 0.0000 0.0000   
space group
225
species
Sr    core   2.00
O     core  -2.00