single pot dist
cell
6.2000 3.6600 3.8900 90.00 90.00 90.00
fractional
Ta c   0.0400 0.0300 0.0300
O  c   0.0000 0.0000 0.5000 
O  c   0.0000 0.5000 0.0000
O  c   0.2500 0.0000 0.0000  
space group
38
species
Ta    core   5.00
O     core  -2.00