single pot dist
cell
6.217 3.677 7.794 90.00 90.00 90.00
fractional
Ta c   0.0000 0.0000 0.0000
Ta c   0.5000 0.5000 0.0000
O  c   0.0000 0.5000 0.0000 
O  c   0.3195 -0.0025 0.0000
O  c   0.0000 0.0000 0.2500
O  c   0.5000 0.5000 0.2500  
space group
49
species
Ta    core   5.00
O     core  -2.00