single pot 
cell
5.1257 5.1257 13.914 90.00 90.00 120.00
fractional
Ti c   0.0000 0.0000 0.3470
O  c   0.3113 0.0000 0.2500   
space group
167
species
Ti    core   3.00
O     core  -2.00