single pot 
cell
4.184 4.184 4.184 90.00 90.00 90.00
fractional
Ti c   0.0000 0.0000 0.0000
O  c   0.5000 0.5000 0.5000   
space group
225
species
Ti    core   2.00
O     core  -2.00