single pot 
cell
4.590 4.590 2.960 90.00 90.00 90.00
fractional
Ti c   0.0000 0.0000 0.0000
O  c   0.3274 0.3274 0.000   
space group
136
species
Ti    core   4.00
O     core  -2.00