single pot 
cell
4.952 4.952 14.002 90.00 90.00 120.00
fractional
V   c   0.0000 0.0000 0.3463
O   c   0.3154 0.0000 0.2500   
space group
167
species
V    core   3.00
O    core  -2.00