single pot 
cell
4.071 4.071 4.071 90.00 90.00 90.00
fractional
V   c   0.5000 0.5000 0.5000
O   c   0.0000 0.0000 0.0000   
space group
225
species
V    core   2.00
O    core  -2.00