single pot dist
cell
7.297 7.539 7.688 90.00 90.91 90.00
fractional
W  c   0.2546 0.0375 0.2825
W  c   0.2509 0.0236 0.7845
O  c   0.0055 0.0425 0.2114
O  c   0.9936 0.4745 0.2185
O  c   0.2883 0.2626 0.2863
O  c   0.2113 0.2598 0.7303
O  c   0.2926 0.0435 0.0084
O  c   0.2797 0.4876 0.9933
space group
14
species
W    core   6.00
O    core  -2.00