single pot dist
cell
7.6883 7.5393 10.5155 90.00 136.06 90.00
fractional
W  c   0.534 0.023 0.750 
W  c   0.028 0.037 0.746
O  c   0.206 0.042 0.995
O  c   0.225 0.474 0.007
O  c   0.998 0.262 0.712
O  c   0.519 0.259 0.789
O  c   0.716 0.043 0.708
O  c   0.714 0.487 0.721
space group
14
species
W    core   6.00
O    core  -2.00